p cnf 638 1983
-1 -3 51 0
1 -3 -51 0
-1 3 -51 0
1 3 51 0
-5 7 52 0
5 7 -52 0
-5 -7 -52 0
5 -7 52 0
9 -10 53 0
-9 -10 -53 0
9 10 -53 0
-9 10 53 0
11 -13 54 0
-11 -13 -54 0
11 13 -54 0
-11 13 54 0
15 -16 55 0
-15 -16 -55 0
15 16 -55 0
-15 16 55 0
-17 18 56 0
17 18 -56 0
-17 -18 -56 0
17 -18 56 0
-21 23 57 0
21 23 -57 0
-21 -23 -57 0
21 -23 57 0
-24 -27 58 0
24 -27 -58 0
-24 27 -58 0
24 27 58 0
29 -30 59 0
-29 -30 -59 0
29 30 -59 0
-29 30 59 0
31 33 60 0
-31 33 -60 0
31 -33 -60 0
-31 -33 60 0
35 42 61 0
-35 42 -61 0
35 -42 -61 0
-35 -42 61 0
-44 45 62 0
44 45 -62 0
-44 -45 -62 0
44 -45 62 0
47 -49 63 0
-47 -49 -63 0
47 49 -63 0
-47 49 63 0
50 -51 64 0
-50 -51 -64 0
50 51 -64 0
-50 51 64 0
52 -53 65 0
-52 -53 -65 0
52 53 -65 0
-52 53 65 0
54 -55 66 0
-54 -55 -66 0
54 55 -66 0
-54 55 66 0
56 -57 67 0
-56 -57 -67 0
56 57 -67 0
-56 57 67 0
58 -59 68 0
-58 -59 -68 0
58 59 -68 0
-58 59 68 0
60 -61 69 0
-60 -61 -69 0
60 61 -69 0
-60 61 69 0
62 -63 70 0
-62 -63 -70 0
62 63 -70 0
-62 63 70 0
64 -65 71 0
-64 -65 -71 0
64 65 -71 0
-64 65 71 0
66 -67 72 0
-66 -67 -72 0
66 67 -72 0
-66 67 72 0
68 -69 73 0
-68 -69 -73 0
68 69 -73 0
-68 69 73 0
70 -71 74 0
-70 -71 -74 0
70 71 -74 0
-70 71 74 0
72 -73 75 0
-72 -73 -75 0
72 73 -75 0
-72 73 75 0
74 75 0
-74 -75 0
-1 3 76 0
1 3 -76 0
-1 -3 -76 0
1 -3 76 0
4 7 77 0
-4 7 -77 0
4 -7 -77 0
-4 -7 77 0
-12 -15 78 0
12 -15 -78 0
-12 15 -78 0
12 15 78 0
-17 -18 79 0
17 -18 -79 0
-17 18 -79 0
17 18 79 0
-21 -22 80 0
21 -22 -80 0
-21 22 -80 0
21 22 80 0
23 -25 81 0
-23 -25 -81 0
23 25 -81 0
-23 25 81 0
26 27 82 0
-26 27 -82 0
26 -27 -82 0
-26 -27 82 0
28 -30 83 0
-28 -30 -83 0
28 30 -83 0
-28 30 83 0
31 32 84 0
-31 32 -84 0
31 -32 -84 0
-31 -32 84 0
34 35 85 0
-34 35 -85 0
34 -35 -85 0
-34 -35 85 0
-40 41 86 0
40 41 -86 0
-40 -41 -86 0
40 -41 86 0
42 43 87 0
-42 43 -87 0
42 -43 -87 0
-42 -43 87 0
-44 46 88 0
44 46 -88 0
-44 -46 -88 0
44 -46 88 0
-47 48 89 0
47 48 -89 0
-47 -48 -89 0
47 -48 89 0
76 -77 90 0
-76 -77 -90 0
76 77 -90 0
-76 77 90 0
78 -79 91 0
-78 -79 -91 0
78 79 -91 0
-78 79 91 0
80 -81 92 0
-80 -81 -92 0
80 81 -92 0
-80 81 92 0
82 -83 93 0
-82 -83 -93 0
82 83 -93 0
-82 83 93 0
84 -85 94 0
-84 -85 -94 0
84 85 -94 0
-84 85 94 0
86 -87 95 0
-86 -87 -95 0
86 87 -95 0
-86 87 95 0
88 -89 96 0
-88 -89 -96 0
88 89 -96 0
-88 89 96 0
90 -91 97 0
-90 -91 -97 0
90 91 -97 0
-90 91 97 0
92 -93 98 0
-92 -93 -98 0
92 93 -98 0
-92 93 98 0
94 -95 99 0
-94 -95 -99 0
94 95 -99 0
-94 95 99 0
96 -97 100 0
-96 -97 -100 0
96 97 -100 0
-96 97 100 0
98 -99 101 0
-98 -99 -101 0
98 99 -101 0
-98 99 101 0
100 101 0
-100 -101 0
-4 -5 102 0
4 -5 -102 0
-4 5 -102 0
4 5 102 0
-6 -7 103 0
6 -7 -103 0
-6 7 -103 0
6 7 103 0
9 11 104 0
-9 11 -104 0
9 -11 -104 0
-9 -11 104 0
-14 -15 105 0
14 -15 -105 0
-14 15 -105 0
14 15 105 0
-17 -18 106 0
17 -18 -106 0
-17 18 -106 0
17 18 106 0
-21 22 107 0
21 22 -107 0
-21 -22 -107 0
21 -22 107 0
23 24 108 0
-23 24 -108 0
23 -24 -108 0
-23 -24 108 0
-25 27 109 0
25 27 -109 0
-25 -27 -109 0
25 -27 109 0
-28 -33 110 0
28 -33 -110 0
-28 33 -110 0
28 33 110 0
37 -38 111 0
-37 -38 -111 0
37 38 -111 0
-37 38 111 0
-40 42 112 0
40 42 -112 0
-40 -42 -112 0
40 -42 112 0
-43 -44 113 0
43 -44 -113 0
-43 44 -113 0
43 44 113 0
45 46 114 0
-45 46 -114 0
45 -46 -114 0
-45 -46 114 0
-47 -48 115 0
47 -48 -115 0
-47 48 -115 0
47 48 115 0
101 -102 116 0
-101 -102 -116 0
101 102 -116 0
-101 102 116 0
103 -104 117 0
-103 -104 -117 0
103 104 -117 0
-103 104 117 0
105 -106 118 0
-105 -106 -118 0
105 106 -118 0
-105 106 118 0
107 -108 119 0
-107 -108 -119 0
107 108 -119 0
-107 108 119 0
109 -110 120 0
-109 -110 -120 0
109 110 -120 0
-109 110 120 0
111 -112 121 0
-111 -112 -121 0
111 112 -121 0
-111 112 121 0
113 -114 122 0
-113 -114 -122 0
113 114 -122 0
-113 114 122 0
115 -116 123 0
-115 -116 -123 0
115 116 -123 0
-115 116 123 0
117 -118 124 0
-117 -118 -124 0
117 118 -124 0
-117 118 124 0
119 -120 125 0
-119 -120 -125 0
119 120 -125 0
-119 120 125 0
121 -122 126 0
-121 -122 -126 0
121 122 -126 0
-121 122 126 0
123 -124 127 0
-123 -124 -127 0
123 124 -127 0
-123 124 127 0
125 -126 128 0
-125 -126 -128 0
125 126 -128 0
-125 126 128 0
127 128 0
-127 -128 0
2 -4 129 0
-2 -4 -129 0
2 4 -129 0
-2 4 129 0
5 -9 130 0
-5 -9 -130 0
5 9 -130 0
-5 9 130 0
11 -12 131 0
-11 -12 -131 0
11 12 -131 0
-11 12 131 0
13 16 132 0
-13 16 -132 0
13 -16 -132 0
-13 -16 132 0
-19 -20 133 0
19 -20 -133 0
-19 20 -133 0
19 20 133 0
-23 -27 134 0
23 -27 -134 0
-23 27 -134 0
23 27 134 0
-28 -29 135 0
28 -29 -135 0
-28 29 -135 0
28 29 135 0
-30 -34 136 0
30 -34 -136 0
-30 34 -136 0
30 34 136 0
-37 -40 137 0
37 -40 -137 0
-37 40 -137 0
37 40 137 0
-41 -47 138 0
41 -47 -138 0
-41 47 -138 0
41 47 138 0
129 -130 139 0
-129 -130 -139 0
129 130 -139 0
-129 130 139 0
131 -132 140 0
-131 -132 -140 0
131 132 -140 0
-131 132 140 0
133 -134 141 0
-133 -134 -141 0
133 134 -141 0
-133 134 141 0
135 -136 142 0
-135 -136 -142 0
135 136 -142 0
-135 136 142 0
137 -138 143 0
-137 -138 -143 0
137 138 -143 0
-137 138 143 0
139 -140 144 0
-139 -140 -144 0
139 140 -144 0
-139 140 144 0
141 -142 145 0
-141 -142 -145 0
141 142 -145 0
-141 142 145 0
-143 -144 145 0
143 -144 -145 0
-143 144 -145 0
143 144 145 0
-2 -4 146 0
2 -4 -146 0
-2 4 -146 0
2 4 146 0
-7 -10 147 0
7 -10 -147 0
-7 10 -147 0
7 10 147 0
-11 12 148 0
11 12 -148 0
-11 -12 -148 0
11 -12 148 0
-15 16 149 0
15 16 -149 0
-15 -16 -149 0
15 -16 149 0
20 -21 150 0
-20 -21 -150 0
20 21 -150 0
-20 21 150 0
23 25 151 0
-23 25 -151 0
23 -25 -151 0
-23 -25 151 0
26 27 152 0
-26 27 -152 0
26 -27 -152 0
-26 -27 152 0
-28 -29 153 0
28 -29 -153 0
-28 29 -153 0
28 29 153 0
30 31 154 0
-30 31 -154 0
30 -31 -154 0
-30 -31 154 0
33 34 155 0
-33 34 -155 0
33 -34 -155 0
-33 -34 155 0
37 -38 156 0
-37 -38 -156 0
37 38 -156 0
-37 38 156 0
-39 43 157 0
39 43 -157 0
-39 -43 -157 0
39 -43 157 0
-44 46 158 0
44 46 -158 0
-44 -46 -158 0
44 -46 158 0
145 -146 159 0
-145 -146 -159 0
145 146 -159 0
-145 146 159 0
147 -148 160 0
-147 -148 -160 0
147 148 -160 0
-147 148 160 0
149 -150 161 0
-149 -150 -161 0
149 150 -161 0
-149 150 161 0
151 -152 162 0
-151 -152 -162 0
151 152 -162 0
-151 152 162 0
153 -154 163 0
-153 -154 -163 0
153 154 -163 0
-153 154 163 0
155 -156 164 0
-155 -156 -164 0
155 156 -164 0
-155 156 164 0
157 -158 165 0
-157 -158 -165 0
157 158 -165 0
-157 158 165 0
159 -160 166 0
-159 -160 -166 0
159 160 -166 0
-159 160 166 0
161 -162 167 0
-161 -162 -167 0
161 162 -167 0
-161 162 167 0
163 -164 168 0
-163 -164 -168 0
163 164 -168 0
-163 164 168 0
165 -166 169 0
-165 -166 -169 0
165 166 -169 0
-165 166 169 0
167 -168 170 0
-167 -168 -170 0
167 168 -170 0
-167 168 170 0
169 170 0
-169 -170 0
2 3 171 0
-2 3 -171 0
2 -3 -171 0
-2 -3 171 0
-4 5 172 0
4 5 -172 0
-4 -5 -172 0
4 -5 172 0
10 11 173 0
-10 11 -173 0
10 -11 -173 0
-10 -11 173 0
13 -14 174 0
-13 -14 -174 0
13 14 -174 0
-13 14 174 0
-16 -17 175 0
16 -17 -175 0
-16 17 -175 0
16 17 175 0
18 19 176 0
-18 19 -176 0
18 -19 -176 0
-18 -19 176 0
21 23 177 0
-21 23 -177 0
21 -23 -177 0
-21 -23 177 0
-24 -25 178 0
24 -25 -178 0
-24 25 -178 0
24 25 178 0
-26 28 179 0
26 28 -179 0
-26 -28 -179 0
26 -28 179 0
-32 34 180 0
32 34 -180 0
-32 -34 -180 0
32 -34 180 0
35 -38 181 0
-35 -38 -181 0
35 38 -181 0
-35 38 181 0
39 43 182 0
-39 43 -182 0
39 -43 -182 0
-39 -43 182 0
-45 46 183 0
45 46 -183 0
-45 -46 -183 0
45 -46 183 0
-49 -50 184 0
49 -50 -184 0
-49 50 -184 0
49 50 184 0
171 -172 185 0
-171 -172 -185 0
171 172 -185 0
-171 172 185 0
173 -174 186 0
-173 -174 -186 0
173 174 -186 0
-173 174 186 0
175 -176 187 0
-175 -176 -187 0
175 176 -187 0
-175 176 187 0
177 -178 188 0
-177 -178 -188 0
177 178 -188 0
-177 178 188 0
179 -180 189 0
-179 -180 -189 0
179 180 -189 0
-179 180 189 0
181 -182 190 0
-181 -182 -190 0
181 182 -190 0
-181 182 190 0
183 -184 191 0
-183 -184 -191 0
183 184 -191 0
-183 184 191 0
185 -186 192 0
-185 -186 -192 0
185 186 -192 0
-185 186 192 0
187 -188 193 0
-187 -188 -193 0
187 188 -193 0
-187 188 193 0
189 -190 194 0
-189 -190 -194 0
189 190 -194 0
-189 190 194 0
191 -192 195 0
-191 -192 -195 0
191 192 -195 0
-191 192 195 0
193 -194 196 0
-193 -194 -196 0
193 194 -196 0
-193 194 196 0
195 196 0
-195 -196 0
1 -2 197 0
-1 -2 -197 0
1 2 -197 0
-1 2 197 0
-6 -7 198 0
6 -7 -198 0
-6 7 -198 0
6 7 198 0
-10 11 199 0
10 11 -199 0
-10 -11 -199 0
10 -11 199 0
12 13 200 0
-12 13 -200 0
12 -13 -200 0
-12 -13 200 0
14 -15 201 0
-14 -15 -201 0
14 15 -201 0
-14 15 201 0
-16 17 202 0
16 17 -202 0
-16 -17 -202 0
16 -17 202 0
-18 19 203 0
18 19 -203 0
-18 -19 -203 0
18 -19 203 0
20 -21 204 0
-20 -21 -204 0
20 21 -204 0
-20 21 204 0
-22 -24 205 0
22 -24 -205 0
-22 24 -205 0
22 24 205 0
-25 -29 206 0
25 -29 -206 0
-25 29 -206 0
25 29 206 0
-30 31 207 0
30 31 -207 0
-30 -31 -207 0
30 -31 207 0
37 38 208 0
-37 38 -208 0
37 -38 -208 0
-37 -38 208 0
-39 41 209 0
39 41 -209 0
-39 -41 -209 0
39 -41 209 0
42 44 210 0
-42 44 -210 0
42 -44 -210 0
-42 -44 210 0
-45 -46 211 0
45 -46 -211 0
-45 46 -211 0
45 46 211 0
-49 -50 212 0
49 -50 -212 0
-49 50 -212 0
49 50 212 0
197 -198 213 0
-197 -198 -213 0
197 198 -213 0
-197 198 213 0
199 -200 214 0
-199 -200 -214 0
199 200 -214 0
-199 200 214 0
201 -202 215 0
-201 -202 -215 0
201 202 -215 0
-201 202 215 0
203 -204 216 0
-203 -204 -216 0
203 204 -216 0
-203 204 216 0
205 -206 217 0
-205 -206 -217 0
205 206 -217 0
-205 206 217 0
207 -208 218 0
-207 -208 -218 0
207 208 -218 0
-207 208 218 0
209 -210 219 0
-209 -210 -219 0
209 210 -219 0
-209 210 219 0
211 -212 220 0
-211 -212 -220 0
211 212 -220 0
-211 212 220 0
213 -214 221 0
-213 -214 -221 0
213 214 -221 0
-213 214 221 0
215 -216 222 0
-215 -216 -222 0
215 216 -222 0
-215 216 222 0
217 -218 223 0
-217 -218 -223 0
217 218 -223 0
-217 218 223 0
219 -220 224 0
-219 -220 -224 0
219 220 -224 0
-219 220 224 0
221 -222 225 0
-221 -222 -225 0
221 222 -225 0
-221 222 225 0
223 -224 226 0
-223 -224 -226 0
223 224 -226 0
-223 224 226 0
225 226 0
-225 -226 0
-1 4 227 0
1 4 -227 0
-1 -4 -227 0
1 -4 227 0
-5 7 228 0
5 7 -228 0
-5 -7 -228 0
5 -7 228 0
-9 -11 229 0
9 -11 -229 0
-9 11 -229 0
9 11 229 0
-12 -16 230 0
12 -16 -230 0
-12 16 -230 0
12 16 230 0
17 -20 231 0
-17 -20 -231 0
17 20 -231 0
-17 20 231 0
23 24 232 0
-23 24 -232 0
23 -24 -232 0
-23 -24 232 0
29 31 233 0
-29 31 -233 0
29 -31 -233 0
-29 -31 233 0
-32 -33 234 0
32 -33 -234 0
-32 33 -234 0
32 33 234 0
-34 -35 235 0
34 -35 -235 0
-34 35 -235 0
34 35 235 0
36 37 236 0
-36 37 -236 0
36 -37 -236 0
-36 -37 236 0
-39 -40 237 0
39 -40 -237 0
-39 40 -237 0
39 40 237 0
41 49 238 0
-41 49 -238 0
41 -49 -238 0
-41 -49 238 0
226 -227 239 0
-226 -227 -239 0
226 227 -239 0
-226 227 239 0
228 -229 240 0
-228 -229 -240 0
228 229 -240 0
-228 229 240 0
230 -231 241 0
-230 -231 -241 0
230 231 -241 0
-230 231 241 0
232 -233 242 0
-232 -233 -242 0
232 233 -242 0
-232 233 242 0
234 -235 243 0
-234 -235 -243 0
234 235 -243 0
-234 235 243 0
236 -237 244 0
-236 -237 -244 0
236 237 -244 0
-236 237 244 0
238 -239 245 0
-238 -239 -245 0
238 239 -245 0
-238 239 245 0
240 -241 246 0
-240 -241 -246 0
240 241 -246 0
-240 241 246 0
242 -243 247 0
-242 -243 -247 0
242 243 -247 0
-242 243 247 0
244 -245 248 0
-244 -245 -248 0
244 245 -248 0
-244 245 248 0
246 -247 249 0
-246 -247 -249 0
246 247 -249 0
-246 247 249 0
248 249 0
-248 -249 0
3 -4 250 0
-3 -4 -250 0
3 4 -250 0
-3 4 250 0
5 7 251 0
-5 7 -251 0
5 -7 -251 0
-5 -7 251 0
9 -11 252 0
-9 -11 -252 0
9 11 -252 0
-9 11 252 0
12 13 253 0
-12 13 -253 0
12 -13 -253 0
-12 -13 253 0
14 -18 254 0
-14 -18 -254 0
14 18 -254 0
-14 18 254 0
-19 -20 255 0
19 -20 -255 0
-19 20 -255 0
19 20 255 0
-21 22 256 0
21 22 -256 0
-21 -22 -256 0
21 -22 256 0
23 26 257 0
-23 26 -257 0
23 -26 -257 0
-23 -26 257 0
27 28 258 0
-27 28 -258 0
27 -28 -258 0
-27 -28 258 0
29 30 259 0
-29 30 -259 0
29 -30 -259 0
-29 -30 259 0
-34 -35 260 0
34 -35 -260 0
-34 35 -260 0
34 35 260 0
-36 -37 261 0
36 -37 -261 0
-36 37 -261 0
36 37 261 0
40 -41 262 0
-40 -41 -262 0
40 41 -262 0
-40 41 262 0
43 44 263 0
-43 44 -263 0
43 -44 -263 0
-43 -44 263 0
-45 -46 264 0
45 -46 -264 0
-45 46 -264 0
45 46 264 0
-47 -48 265 0
47 -48 -265 0
-47 48 -265 0
47 48 265 0
249 -250 266 0
-249 -250 -266 0
249 250 -266 0
-249 250 266 0
251 -252 267 0
-251 -252 -267 0
251 252 -267 0
-251 252 267 0
253 -254 268 0
-253 -254 -268 0
253 254 -268 0
-253 254 268 0
255 -256 269 0
-255 -256 -269 0
255 256 -269 0
-255 256 269 0
257 -258 270 0
-257 -258 -270 0
257 258 -270 0
-257 258 270 0
259 -260 271 0
-259 -260 -271 0
259 260 -271 0
-259 260 271 0
261 -262 272 0
-261 -262 -272 0
261 262 -272 0
-261 262 272 0
263 -264 273 0
-263 -264 -273 0
263 264 -273 0
-263 264 273 0
265 -266 274 0
-265 -266 -274 0
265 266 -274 0
-265 266 274 0
267 -268 275 0
-267 -268 -275 0
267 268 -275 0
-267 268 275 0
269 -270 276 0
-269 -270 -276 0
269 270 -276 0
-269 270 276 0
271 -272 277 0
-271 -272 -277 0
271 272 -277 0
-271 272 277 0
273 -274 278 0
-273 -274 -278 0
273 274 -278 0
-273 274 278 0
275 -276 279 0
-275 -276 -279 0
275 276 -279 0
-275 276 279 0
-277 -278 279 0
277 -278 -279 0
-277 278 -279 0
277 278 279 0
1 -3 280 0
-1 -3 -280 0
1 3 -280 0
-1 3 280 0
5 6 281 0
-5 6 -281 0
5 -6 -281 0
-5 -6 281 0
9 -13 282 0
-9 -13 -282 0
9 13 -282 0
-9 13 282 0
16 -17 283 0
-16 -17 -283 0
16 17 -283 0
-16 17 283 0
19 22 284 0
-19 22 -284 0
19 -22 -284 0
-19 -22 284 0
23 26 285 0
-23 26 -285 0
23 -26 -285 0
-23 -26 285 0
-30 -32 286 0
30 -32 -286 0
-30 32 -286 0
30 32 286 0
-33 35 287 0
33 35 -287 0
-33 -35 -287 0
33 -35 287 0
-36 -37 288 0
36 -37 -288 0
-36 37 -288 0
36 37 288 0
-38 40 289 0
38 40 -289 0
-38 -40 -289 0
38 -40 289 0
-44 45 290 0
44 45 -290 0
-44 -45 -290 0
44 -45 290 0
-46 47 291 0
46 47 -291 0
-46 -47 -291 0
46 -47 291 0
49 50 292 0
-49 50 -292 0
49 -50 -292 0
-49 -50 292 0
280 -281 293 0
-280 -281 -293 0
280 281 -293 0
-280 281 293 0
282 -283 294 0
-282 -283 -294 0
282 283 -294 0
-282 283 294 0
284 -285 295 0
-284 -285 -295 0
284 285 -295 0
-284 285 295 0
286 -287 296 0
-286 -287 -296 0
286 287 -296 0
-286 287 296 0
288 -289 297 0
-288 -289 -297 0
288 289 -297 0
-288 289 297 0
290 -291 298 0
-290 -291 -298 0
290 291 -298 0
-290 291 298 0
292 -293 299 0
-292 -293 -299 0
292 293 -299 0
-292 293 299 0
294 -295 300 0
-294 -295 -300 0
294 295 -300 0
-294 295 300 0
296 -297 301 0
-296 -297 -301 0
296 297 -301 0
-296 297 301 0
298 -299 302 0
-298 -299 -302 0
298 299 -302 0
-298 299 302 0
300 -301 303 0
-300 -301 -303 0
300 301 -303 0
-300 301 303 0
302 303 0
-302 -303 0
3 5 304 0
-3 5 -304 0
3 -5 -304 0
-3 -5 304 0
-6 -7 305 0
6 -7 -305 0
-6 7 -305 0
6 7 305 0
-9 10 306 0
9 10 -306 0
-9 -10 -306 0
9 -10 306 0
-12 -16 307 0
12 -16 -307 0
-12 16 -307 0
12 16 307 0
-17 -18 308 0
17 -18 -308 0
-17 18 -308 0
17 18 308 0
-22 -24 309 0
22 -24 -309 0
-22 24 -309 0
22 24 309 0
-25 29 310 0
25 29 -310 0
-25 -29 -310 0
25 -29 310 0
34 36 311 0
-34 36 -311 0
34 -36 -311 0
-34 -36 311 0
-45 -46 312 0
45 -46 -312 0
-45 46 -312 0
45 46 312 0
303 -304 313 0
-303 -304 -313 0
303 304 -313 0
-303 304 313 0
305 -306 314 0
-305 -306 -314 0
305 306 -314 0
-305 306 314 0
307 -308 315 0
-307 -308 -315 0
307 308 -315 0
-307 308 315 0
309 -310 316 0
-309 -310 -316 0
309 310 -316 0
-309 310 316 0
311 -312 317 0
-311 -312 -317 0
311 312 -317 0
-311 312 317 0
313 -314 318 0
-313 -314 -318 0
313 314 -318 0
-313 314 318 0
315 -316 319 0
-315 -316 -319 0
315 316 -319 0
-315 316 319 0
-317 -318 319 0
317 -318 -319 0
-317 318 -319 0
317 318 319 0
4 -7 320 0
-4 -7 -320 0
4 7 -320 0
-4 7 320 0
-8 10 321 0
8 10 -321 0
-8 -10 -321 0
8 -10 321 0
12 -14 322 0
-12 -14 -322 0
12 14 -322 0
-12 14 322 0
-15 -19 323 0
15 -19 -323 0
-15 19 -323 0
15 19 323 0
-20 21 324 0
20 21 -324 0
-20 -21 -324 0
20 -21 324 0
23 -25 325 0
-23 -25 -325 0
23 25 -325 0
-23 25 325 0
27 28 326 0
-27 28 -326 0
27 -28 -326 0
-27 -28 326 0
-32 33 327 0
32 33 -327 0
-32 -33 -327 0
32 -33 327 0
42 -44 328 0
-42 -44 -328 0
42 44 -328 0
-42 44 328 0
319 -320 329 0
-319 -320 -329 0
319 320 -329 0
-319 320 329 0
321 -322 330 0
-321 -322 -330 0
321 322 -330 0
-321 322 330 0
323 -324 331 0
-323 -324 -331 0
323 324 -331 0
-323 324 331 0
325 -326 332 0
-325 -326 -332 0
325 326 -332 0
-325 326 332 0
327 -328 333 0
-327 -328 -333 0
327 328 -333 0
-327 328 333 0
329 -330 334 0
-329 -330 -334 0
329 330 -334 0
-329 330 334 0
331 -332 335 0
-331 -332 -335 0
331 332 -335 0
-331 332 335 0
-333 -334 335 0
333 -334 -335 0
-333 334 -335 0
333 334 335 0
-6 -8 336 0
6 -8 -336 0
-6 8 -336 0
6 8 336 0
9 -12 337 0
-9 -12 -337 0
9 12 -337 0
-9 12 337 0
-13 14 338 0
13 14 -338 0
-13 -14 -338 0
13 -14 338 0
-17 19 339 0
17 19 -339 0
-17 -19 -339 0
17 -19 339 0
21 -28 340 0
-21 -28 -340 0
21 28 -340 0
-21 28 340 0
32 -33 341 0
-32 -33 -341 0
32 33 -341 0
-32 33 341 0
34 39 342 0
-34 39 -342 0
34 -39 -342 0
-34 -39 342 0
335 -336 343 0
-335 -336 -343 0
335 336 -343 0
-335 336 343 0
337 -338 344 0
-337 -338 -344 0
337 338 -344 0
-337 338 344 0
339 -340 345 0
-339 -340 -345 0
339 340 -345 0
-339 340 345 0
341 -342 346 0
-341 -342 -346 0
341 342 -346 0
-341 342 346 0
343 -344 347 0
-343 -344 -347 0
343 344 -347 0
-343 344 347 0
345 -346 348 0
-345 -346 -348 0
345 346 -348 0
-345 346 348 0
347 348 0
-347 -348 0
1 -2 349 0
-1 -2 -349 0
1 2 -349 0
-1 2 349 0
5 7 350 0
-5 7 -350 0
5 -7 -350 0
-5 -7 350 0
8 -11 351 0
-8 -11 -351 0
8 11 -351 0
-8 11 351 0
-14 -18 352 0
14 -18 -352 0
-14 18 -352 0
14 18 352 0
19 22 353 0
-19 22 -353 0
19 -22 -353 0
-19 -22 353 0
-25 32 354 0
25 32 -354 0
-25 -32 -354 0
25 -32 354 0
-33 -34 355 0
33 -34 -355 0
-33 34 -355 0
33 34 355 0
36 -38 356 0
-36 -38 -356 0
36 38 -356 0
-36 38 356 0
-42 43 357 0
42 43 -357 0
-42 -43 -357 0
42 -43 357 0
-48 -49 358 0
48 -49 -358 0
-48 49 -358 0
48 49 358 0
348 -349 359 0
-348 -349 -359 0
348 349 -359 0
-348 349 359 0
350 -351 360 0
-350 -351 -360 0
350 351 -360 0
-350 351 360 0
352 -353 361 0
-352 -353 -361 0
352 353 -361 0
-352 353 361 0
354 -355 362 0
-354 -355 -362 0
354 355 -362 0
-354 355 362 0
356 -357 363 0
-356 -357 -363 0
356 357 -363 0
-356 357 363 0
358 -359 364 0
-358 -359 -364 0
358 359 -364 0
-358 359 364 0
360 -361 365 0
-360 -361 -365 0
360 361 -365 0
-360 361 365 0
362 -363 366 0
-362 -363 -366 0
362 363 -366 0
-362 363 366 0
-364 -365 366 0
364 -365 -366 0
-364 365 -366 0
364 365 366 0
1 4 367 0
-1 4 -367 0
1 -4 -367 0
-1 -4 367 0
14 -17 368 0
-14 -17 -368 0
14 17 -368 0
-14 17 368 0
-24 -26 369 0
24 -26 -369 0
-24 26 -369 0
24 26 369 0
30 31 370 0
-30 31 -370 0
30 -31 -370 0
-30 -31 370 0
-35 -37 371 0
35 -37 -371 0
-35 37 -371 0
35 37 371 0
39 40 372 0
-39 40 -372 0
39 -40 -372 0
-39 -40 372 0
41 -43 373 0
-41 -43 -373 0
41 43 -373 0
-41 43 373 0
47 -48 374 0
-47 -48 -374 0
47 48 -374 0
-47 48 374 0
366 -367 375 0
-366 -367 -375 0
366 367 -375 0
-366 367 375 0
368 -369 376 0
-368 -369 -376 0
368 369 -376 0
-368 369 376 0
370 -371 377 0
-370 -371 -377 0
370 371 -377 0
-370 371 377 0
372 -373 378 0
-372 -373 -378 0
372 373 -378 0
-372 373 378 0
374 -375 379 0
-374 -375 -379 0
374 375 -379 0
-374 375 379 0
376 -377 380 0
-376 -377 -380 0
376 377 -380 0
-376 377 380 0
-378 -379 380 0
378 -379 -380 0
-378 379 -380 0
378 379 380 0
-12 381 0
-24 381 0
-12 -24 382 0
-23 381 0
-12 -23 382 0
-24 -23 382 0
-12 -24 -23 383 0
-22 384 0
-21 384 0
-22 -21 385 0
-20 384 0
-22 -20 385 0
-21 -20 385 0
-22 -21 -20 386 0
-381 387 0
-382 388 0
-383 389 0
-384 387 0
-385 388 0
-386 389 0
-381 -384 388 0
-381 -385 389 0
-381 -386 390 0
-382 -384 389 0
-382 -385 390 0
-382 -386 391 0
-383 -384 390 0
-383 -385 391 0
-383 -386 392 0
-19 393 0
-18 393 0
-19 -18 394 0
-17 393 0
-19 -17 394 0
-18 -17 394 0
-19 -18 -17 395 0
-16 396 0
-15 396 0
-16 -15 397 0
-14 396 0
-16 -14 397 0
-15 -14 397 0
-16 -15 -14 398 0
-393 399 0
-394 400 0
-395 401 0
-396 399 0
-397 400 0
-398 401 0
-393 -396 400 0
-393 -397 401 0
-393 -398 402 0
-394 -396 401 0
-394 -397 402 0
-394 -398 403 0
-395 -396 402 0
-395 -397 403 0
-395 -398 404 0
-13 405 0
-25 405 0
-13 -25 406 0
-11 405 0
-13 -11 406 0
-25 -11 406 0
-13 -25 -11 407 0
-10 408 0
-9 408 0
-10 -9 409 0
-8 408 0
-10 -8 409 0
-9 -8 409 0
-10 -9 -8 410 0
-405 411 0
-406 412 0
-407 413 0
-408 411 0
-409 412 0
-410 413 0
-405 -408 412 0
-405 -409 413 0
-405 -410 414 0
-406 -408 413 0
-406 -409 414 0
-406 -410 415 0
-407 -408 414 0
-407 -409 415 0
-407 -410 416 0
-7 417 0
-6 417 0
-7 -6 418 0
-5 417 0
-7 -5 418 0
-6 -5 418 0
-7 -6 -5 419 0
-4 420 0
-3 420 0
-4 -3 421 0
-2 422 0
-1 422 0
-2 -1 423 0
-37 422 0
-2 -37 423 0
-1 -37 423 0
-2 -1 -37 424 0
-420 425 0
-421 426 0
-422 425 0
-423 426 0
-424 427 0
-420 -422 426 0
-420 -423 427 0
-420 -424 428 0
-421 -422 427 0
-421 -423 428 0
-421 -424 429 0
-417 430 0
-418 431 0
-419 432 0
-425 430 0
-426 431 0
-427 432 0
-428 433 0
-429 434 0
-417 -425 431 0
-417 -426 432 0
-417 -427 433 0
-417 -428 434 0
-417 -429 435 0
-418 -425 432 0
-418 -426 433 0
-418 -427 434 0
-418 -428 435 0
-418 -429 436 0
-419 -425 433 0
-419 -426 434 0
-419 -427 435 0
-419 -428 436 0
-419 -429 437 0
-49 438 0
-48 438 0
-49 -48 439 0
-47 438 0
-49 -47 439 0
-48 -47 439 0
-49 -48 -47 440 0
-46 441 0
-45 441 0
-46 -45 442 0
-44 443 0
-43 443 0
-44 -43 444 0
-42 443 0
-44 -42 444 0
-43 -42 444 0
-44 -43 -42 445 0
-441 446 0
-442 447 0
-443 446 0
-444 447 0
-445 448 0
-441 -443 447 0
-441 -444 448 0
-441 -445 449 0
-442 -443 448 0
-442 -444 449 0
-442 -445 450 0
-438 451 0
-439 452 0
-440 453 0
-446 451 0
-447 452 0
-448 453 0
-449 454 0
-450 455 0
-438 -446 452 0
-438 -447 453 0
-438 -448 454 0
-438 -449 455 0
-438 -450 456 0
-439 -446 453 0
-439 -447 454 0
-439 -448 455 0
-439 -449 456 0
-439 -450 457 0
-440 -446 454 0
-440 -447 455 0
-440 -448 456 0
-440 -449 457 0
-440 -450 458 0
-41 459 0
-40 459 0
-41 -40 460 0
-39 459 0
-41 -39 460 0
-40 -39 460 0
-41 -40 -39 461 0
-38 462 0
-50 462 0
-38 -50 463 0
-36 464 0
-35 464 0
-36 -35 465 0
-34 464 0
-36 -34 465 0
-35 -34 465 0
-36 -35 -34 466 0
-462 467 0
-463 468 0
-464 467 0
-465 468 0
-466 469 0
-462 -464 468 0
-462 -465 469 0
-462 -466 470 0
-463 -464 469 0
-463 -465 470 0
-463 -466 471 0
-459 472 0
-460 473 0
-461 474 0
-467 472 0
-468 473 0
-469 474 0
-470 475 0
-471 476 0
-459 -467 473 0
-459 -468 474 0
-459 -469 475 0
-459 -470 476 0
-459 -471 477 0
-460 -467 474 0
-460 -468 475 0
-460 -469 476 0
-460 -470 477 0
-460 -471 478 0
-461 -467 475 0
-461 -468 476 0
-461 -469 477 0
-461 -470 478 0
-461 -471 479 0
-33 480 0
-32 480 0
-33 -32 481 0
-31 480 0
-33 -31 481 0
-32 -31 481 0
-33 -32 -31 482 0
-30 483 0
-29 483 0
-30 -29 484 0
-28 485 0
-27 485 0
-28 -27 486 0
-26 485 0
-28 -26 486 0
-27 -26 486 0
-28 -27 -26 487 0
-483 488 0
-484 489 0
-485 488 0
-486 489 0
-487 490 0
-483 -485 489 0
-483 -486 490 0
-483 -487 491 0
-484 -485 490 0
-484 -486 491 0
-484 -487 492 0
-480 493 0
-481 494 0
-482 495 0
-488 493 0
-489 494 0
-490 495 0
-491 496 0
-492 497 0
-480 -488 494 0
-480 -489 495 0
-480 -490 496 0
-480 -491 497 0
-480 -492 498 0
-481 -488 495 0
-481 -489 496 0
-481 -490 497 0
-481 -491 498 0
-481 -492 499 0
-482 -488 496 0
-482 -489 497 0
-482 -490 498 0
-482 -491 499 0
-482 -492 500 0
-472 501 0
-474 502 0
-476 503 0
-478 504 0
-493 501 0
-495 502 0
-497 503 0
-499 504 0
-472 -493 502 0
-472 -495 503 0
-472 -497 504 0
-472 -499 505 0
-474 -493 503 0
-474 -495 504 0
-474 -497 505 0
-474 -499 506 0
-476 -493 504 0
-476 -495 505 0
-476 -497 506 0
-478 -493 505 0
-478 -495 506 0
-473 507 0
-477 508 0
-494 507 0
-498 508 0
-473 -494 508 0
-473 -498 509 0
-477 -494 509 0
-475 510 0
-479 511 0
-496 510 0
-500 511 0
-475 -496 511 0
-508 512 0
-510 512 0
-508 -510 513 0
-509 514 0
-511 514 0
-509 -511 515 0
-502 516 0
-507 516 0
-502 -507 517 0
-503 518 0
-512 518 0
-503 -512 519 0
-504 520 0
-513 520 0
-504 -513 521 0
-505 522 0
-514 522 0
-505 -514 523 0
-506 524 0
-515 524 0
-506 -515 525 0
-451 526 0
-453 527 0
-455 528 0
-457 529 0
-501 526 0
-517 527 0
-519 528 0
-521 529 0
-523 530 0
-525 531 0
-451 -501 527 0
-451 -517 528 0
-451 -519 529 0
-451 -521 530 0
-451 -523 531 0
-453 -501 528 0
-453 -517 529 0
-453 -519 530 0
-453 -521 531 0
-455 -501 529 0
-455 -517 530 0
-455 -519 531 0
-457 -501 530 0
-457 -517 531 0
-452 532 0
-456 533 0
-516 532 0
-520 533 0
-524 534 0
-452 -516 533 0
-452 -520 534 0
-456 -516 534 0
-454 535 0
-458 536 0
-518 535 0
-522 536 0
-454 -518 536 0
-533 537 0
-535 537 0
-533 -535 538 0
-534 539 0
-536 539 0
-534 -536 540 0
-527 541 0
-532 541 0
-527 -532 542 0
-528 543 0
-537 543 0
-528 -537 544 0
-529 545 0
-538 545 0
-529 -538 546 0
-530 547 0
-539 547 0
-530 -539 548 0
-531 549 0
-540 549 0
-531 -540 550 0
-430 551 0
-432 552 0
-434 553 0
-436 554 0
-526 551 0
-542 552 0
-544 553 0
-546 554 0
-548 555 0
-550 556 0
-430 -526 552 0
-430 -542 553 0
-430 -544 554 0
-430 -546 555 0
-430 -548 556 0
-432 -526 553 0
-432 -542 554 0
-432 -544 555 0
-432 -546 556 0
-434 -526 554 0
-434 -542 555 0
-434 -544 556 0
-436 -526 555 0
-436 -542 556 0
-431 557 0
-435 558 0
-541 557 0
-545 558 0
-549 559 0
-431 -541 558 0
-431 -545 559 0
-435 -541 559 0
-433 560 0
-437 561 0
-543 560 0
-547 561 0
-433 -543 561 0
-558 562 0
-560 562 0
-558 -560 563 0
-559 564 0
-561 564 0
-559 -561 565 0
-552 566 0
-557 566 0
-552 -557 567 0
-553 568 0
-562 568 0
-553 -562 569 0
-554 570 0
-563 570 0
-554 -563 571 0
-555 572 0
-564 572 0
-555 -564 573 0
-556 574 0
-565 574 0
-556 -565 575 0
-411 576 0
-413 577 0
-415 578 0
-551 576 0
-567 577 0
-569 578 0
-571 579 0
-573 580 0
-575 581 0
-411 -551 577 0
-411 -567 578 0
-411 -569 579 0
-411 -571 580 0
-411 -573 581 0
-413 -551 578 0
-413 -567 579 0
-413 -569 580 0
-413 -571 581 0
-415 -551 579 0
-415 -567 580 0
-415 -569 581 0
-412 582 0
-414 583 0
-416 584 0
-566 582 0
-568 583 0
-570 584 0
-572 585 0
-574 586 0
-412 -566 583 0
-412 -568 584 0
-412 -570 585 0
-412 -572 586 0
-414 -566 584 0
-414 -568 585 0
-414 -570 586 0
-416 -566 585 0
-416 -568 586 0
-577 587 0
-582 587 0
-577 -582 588 0
-578 589 0
-583 589 0
-578 -583 590 0
-579 591 0
-584 591 0
-579 -584 592 0
-580 593 0
-585 593 0
-580 -585 594 0
-581 595 0
-586 595 0
-581 -586 596 0
-399 597 0
-401 598 0
-403 599 0
-576 597 0
-588 598 0
-590 599 0
-592 600 0
-594 601 0
-596 602 0
-399 -576 598 0
-399 -588 599 0
-399 -590 600 0
-399 -592 601 0
-399 -594 602 0
-401 -576 599 0
-401 -588 600 0
-401 -590 601 0
-401 -592 602 0
-403 -576 600 0
-403 -588 601 0
-403 -590 602 0
-400 603 0
-402 604 0
-404 605 0
-587 603 0
-589 604 0
-591 605 0
-593 606 0
-595 607 0
-400 -587 604 0
-400 -589 605 0
-400 -591 606 0
-400 -593 607 0
-402 -587 605 0
-402 -589 606 0
-402 -591 607 0
-404 -587 606 0
-404 -589 607 0
-598 608 0
-603 608 0
-598 -603 609 0
-599 610 0
-604 610 0
-599 -604 611 0
-600 612 0
-605 612 0
-600 -605 613 0
-601 614 0
-606 614 0
-601 -606 615 0
-602 616 0
-607 616 0
-602 -607 617 0
-387 618 0
-389 619 0
-391 620 0
-597 618 0
-609 619 0
-611 620 0
-613 621 0
-615 622 0
-617 623 0
-387 -597 619 0
-387 -609 620 0
-387 -611 621 0
-387 -613 622 0
-387 -615 623 0
-389 -597 620 0
-389 -609 621 0
-389 -611 622 0
-389 -613 623 0
-391 -597 621 0
-391 -609 622 0
-391 -611 623 0
-388 624 0
-390 625 0
-392 626 0
-608 624 0
-610 625 0
-612 626 0
-614 627 0
-616 628 0
-388 -608 625 0
-388 -610 626 0
-388 -612 627 0
-388 -614 628 0
-390 -608 626 0
-390 -610 627 0
-390 -612 628 0
-392 -608 627 0
-392 -610 628 0
-619 629 0
-624 629 0
-619 -624 630 0
-620 631 0
-625 631 0
-620 -625 632 0
-621 633 0
-626 633 0
-621 -626 634 0
-622 635 0
-627 635 0
-622 -627 636 0
-623 637 0
-628 637 0
-623 -628 638 0
-638 0
